50, 1075
6, 1
12, 2
18, 3
43, 38
86, 76
86, 76
41, 36
82, 72
164, 144
10, 5
20, 10
20, 10
52, 47
104, 94
156, 141
14, 9
28, 18
56, 36
42, 27
47, 42
37, 32
74, 64
50, 45
100, 90
50, 45
42, 37
84, 74
42, 37
12, 7
24, 14
48, 28
12, 7
39, 34
22, 17
44, 34
88, 68
44, 34
24, 19
48, 38
96, 76
24, 19
48, 43
96, 86
48, 43
26, 21
52, 42
104, 84
31, 26
62, 52
52, 47
